c Random generated cnf formula, satisfiable: false
p cnf 10 50
-1 6 4 0
6 4 3 0
-10 1 8 0
-4 -6 5 0
1 -10 2 0
-2 -6 4 0
10 1 5 0
7 2 1 0
5 -2 -4 0
2 9 -4 0
4 -3 -5 0
-6 -10 2 0
4 -8 -5 0
-6 10 -9 0
1 -6 9 0
7 2 -4 0
-10 -7 -4 0
-10 -5 3 0
-5 1 2 0
8 1 -7 0
-3 -9 6 0
1 -10 2 0
-4 6 -3 0
-1 2 8 0
8 -9 3 0
-7 -6 -4 0
-6 -4 -1 0
-5 -8 4 0
-3 2 -9 0
-2 -7 -5 0
1 7 10 0
-5 6 -4 0
9 6 -1 0
-6 -8 1 0
5 8 -2 0
10 3 -8 0
-7 -8 -10 0
9 -3 -2 0
-5 -9 -4 0
8 -6 5 0
-1 -4 -2 0
-2 5 4 0
7 -9 5 0
2 8 -4 0
-2 1 7 0
3 5 2 0
2 6 -4 0
5 4 10 0
-4 -7 3 0
8 3 -9 0
